cfms/WorkingUVLModelBenchmark/BooleguruSMT/ToyBoxOh2020-0_7_5.txt
(set-logic QF_BV)
(define-fun implies ((p Bool) (q Bool)) Bool (or (not p) q))

(declare-const "__Root__" Bool)
(declare-const "CONFIG_KILL bool" Bool)
(declare-const "CONFIG_TOYBOX_NORECURSE bool" Bool)
(declare-const "CONFIG_LOGGER bool" Bool)
(declare-const "CONFIG_WHICH bool" Bool)
(declare-const "CONFIG_DHCP6 bool" Bool)
(declare-const "CONFIG_LSATTR bool" Bool)
(declare-const "CONFIG_UUDECODE bool" Bool)
(declare-const "CONFIG_UNSHARE bool" Bool)
(declare-const "CONFIG_USERADD bool" Bool)
(declare-const "CONFIG_OPENVT bool" Bool)
(declare-const "CONFIG_IONICE bool" Bool)
(declare-const "CONFIG_SWITCH_ROOT bool" Bool)
(declare-const "CONFIG_WATCH bool" Bool)
(declare-const "CONFIG_FACTOR bool" Bool)
(declare-const "CONFIG_TOYBOX_HELP bool" Bool)
(declare-const "CONFIG_IFCONFIG bool" Bool)
(declare-const "CONFIG_GROUPS bool" Bool)
(declare-const "CONFIG_TOYBOX_ANDROID_SCHEDPOLICY hidden_bool" Bool)
(declare-const "CONFIG_MKDIR bool" Bool)
(declare-const "CONFIG_CATV bool" Bool)
(declare-const "CONFIG_MODINFO bool" Bool)
(declare-const "CONFIG_MDEV_CONF bool" Bool)
(declare-const "CONFIG_MKNOD_Z hidden_bool" Bool)
(declare-const "CONFIG_SETPROP bool" Bool)
(declare-const "CONFIG_IPCS bool" Bool)
(declare-const "CONFIG_FREERAMDISK bool" Bool)
(declare-const "CONFIG_TEST_MANY_OPTIONS bool" Bool)
(declare-const "CONFIG_UNIX2DOS bool" Bool)
(declare-const "CONFIG_SEQ bool" Bool)
(declare-const "CONFIG_ASCII bool" Bool)
(declare-const "CONFIG_TOYBOX_FORK hidden_bool" Bool)
(declare-const "CONFIG_TEST_UTF8TOWC bool" Bool)
(declare-const "CONFIG_LSUSB bool" Bool)
(declare-const "CONFIG_PS bool" Bool)
(declare-const "CONFIG_SYNC bool" Bool)
(declare-const "CONFIG_GZIP bool" Bool)
(declare-const "CONFIG_CHRT bool" Bool)
(declare-const "CONFIG_NBD_CLIENT bool" Bool)
(declare-const "CONFIG_FTPGET bool" Bool)
(declare-const "CONFIG_RMMOD bool" Bool)
(declare-const "CONFIG_TAIL bool" Bool)
(declare-const "CONFIG_MORE bool" Bool)
(declare-const "CONFIG_CMP bool" Bool)
(declare-const "CONFIG_GUNZIP bool" Bool)
(declare-const "CONFIG_UNAME bool" Bool)
(declare-const "CONFIG_TAC bool" Bool)
(declare-const "CONFIG_LOAD_POLICY bool" Bool)
(declare-const "CONFIG_GETPROP bool" Bool)
(declare-const "CONFIG_FSFREEZE bool" Bool)
(declare-const "CONFIG_MV bool" Bool)
(declare-const "CONFIG_PATCH bool" Bool)
(declare-const "CONFIG_PKILL bool" Bool)
(declare-const "CONFIG_DOS2UNIX bool" Bool)
(declare-const "CONFIG_SENDEVENT bool" Bool)
(declare-const "CONFIG_ACPI bool" Bool)
(declare-const "CONFIG_TEST_SCANKEY bool" Bool)
(declare-const "CONFIG_MKTEMP bool" Bool)
(declare-const "CONFIG_READLINK bool" Bool)
(declare-const "CONFIG_DF bool" Bool)
(declare-const "CONFIG_TOYBOX_HELP_DASHDASH bool" Bool)
(declare-const "CONFIG_BZCAT bool" Bool)
(declare-const "CONFIG_DIFF bool" Bool)
(declare-const "CONFIG_TRUNCATE bool" Bool)
(declare-const "CONFIG_DECOMPRESS bool" Bool)
(declare-const "CONFIG_YES bool" Bool)
(declare-const "CONFIG_ARP bool" Bool)
(declare-const "CONFIG_ID_Z hidden_bool" Bool)
(declare-const "CONFIG_HOST bool" Bool)
(declare-const "CONFIG_FOLD bool" Bool)
(declare-const "CONFIG_SHA1SUM bool" Bool)
(declare-const "CONFIG_TEST_HUMAN_READABLE bool" Bool)
(declare-const "CONFIG_TOYBOX_SHADOW hidden_bool" Bool)
(declare-const "CONFIG_USLEEP bool" Bool)
(declare-const "CONFIG_NICE bool" Bool)
(declare-const "CONFIG_RFKILL bool" Bool)
(declare-const "CONFIG_LSPCI_TEXT bool" Bool)
(declare-const "CONFIG_GETFATTR bool" Bool)
(declare-const "CONFIG_EXIT hidden_bool" Bool)
(declare-const "CONFIG_VCONFIG bool" Bool)
(declare-const "CONFIG_SETFATTR bool" Bool)
(declare-const "CONFIG_START bool" Bool)
(declare-const "CONFIG_TRACEROUTE bool" Bool)
(declare-const "CONFIG_TEE bool" Bool)
(declare-const "CONFIG_TEST bool" Bool)
(declare-const "CONFIG_ID bool" Bool)
(declare-const "CONFIG_TOYBOX_SUID bool" Bool)
(declare-const "CONFIG_TFTP bool" Bool)
(declare-const "CONFIG_FDISK bool" Bool)
(declare-const "CONFIG_BUNZIP2 bool" Bool)
(declare-const "CONFIG_MOUNT bool" Bool)
(declare-const "CONFIG_TOYBOX hidden_bool" Bool)
(declare-const "CONFIG_HOSTID bool" Bool)
(declare-const "CONFIG_EXPR bool" Bool)
(declare-const "CONFIG_CP bool" Bool)
(declare-const "CONFIG_MICROCOM bool" Bool)
(declare-const "CONFIG_PARTPROBE bool" Bool)
(declare-const "CONFIG_RUNCON bool" Bool)
(declare-const "CONFIG_SPLIT bool" Bool)
(declare-const "CONFIG_SED bool" Bool)
(declare-const "CONFIG_RESET bool" Bool)
(declare-const "CONFIG_WGET bool" Bool)
(declare-const "CONFIG_TOYBOX_SELINUX choice_bool" Bool)
(declare-const "CONFIG_NOHUP bool" Bool)
(declare-const "CONFIG_IP bool" Bool)
(declare-const "CONFIG_TOYBOX_PRLIMIT hidden_bool" Bool)
(declare-const "CONFIG_LSPCI bool" Bool)
(declare-const "CONFIG_HEAD bool" Bool)
(declare-const "CONFIG_TOYBOX_I18N bool" Bool)
(declare-const "CONFIG_UMOUNT bool" Bool)
(declare-const "CONFIG_DIRNAME bool" Bool)
(declare-const "CONFIG_HELP_EXTRAS bool" Bool)
(declare-const "CONFIG_CLEAR bool" Bool)
(declare-const "CONFIG_PASTE bool" Bool)
(declare-const "CONFIG_CD hidden_bool" Bool)
(declare-const "CONFIG_TIMEOUT bool" Bool)
(declare-const "CONFIG_VI bool" Bool)
(declare-const "CONFIG_STRINGS bool" Bool)
(declare-const "CONFIG_SULOGIN bool" Bool)
(declare-const "CONFIG_CKSUM bool" Bool)
(declare-const "CONFIG_KILLALL5 bool" Bool)
(declare-const "CONFIG_SETSID bool" Bool)
(declare-const "CONFIG_GROUPADD bool" Bool)
(declare-const "CONFIG_FGREP hidden_bool" Bool)
(declare-const "CONFIG_MKFIFO bool" Bool)
(declare-const "CONFIG_RESTORECON bool" Bool)
(declare-const "CONFIG_NSENTER bool" Bool)
(declare-const "CONFIG_TOYBOX_FLOAT bool" Bool)
(declare-const "CONFIG_ENV bool" Bool)
(declare-const "CONFIG_STAT bool" Bool)
(declare-const "CONFIG_TELNET bool" Bool)
(declare-const "CONFIG_SHA384SUM bool" Bool)
(declare-const "CONFIG_UPTIME bool" Bool)
(declare-const "CONFIG_LS bool" Bool)
(declare-const "CONFIG_PRINTF bool" Bool)
(declare-const "CONFIG_LOGNAME bool" Bool)
(declare-const "CONFIG_BLKID bool" Bool)
(declare-const "CONFIG_PGREP bool" Bool)
(declare-const "CONFIG_SORT_BIG bool" Bool)
(declare-const "CONFIG_SHA512SUM bool" Bool)
(declare-const "CONFIG_MKPASSWD bool" Bool)
(declare-const "CONFIG_PWDX bool" Bool)
(declare-const "CONFIG_SHRED bool" Bool)
(declare-const "CONFIG_PASSWD bool" Bool)
(declare-const "CONFIG_CAL bool" Bool)
(declare-const "CONFIG_INOTIFYD bool" Bool)
(declare-const "CONFIG_CRONTAB bool" Bool)
(declare-const "CONFIG_TASKSET bool" Bool)
(declare-const "CONFIG_BRCTL bool" Bool)
(declare-const "CONFIG_LAST bool" Bool)
(declare-const "CONFIG_WC bool" Bool)
(declare-const "CONFIG_MKE2FS_EXTENDED bool" Bool)
(declare-const "CONFIG_MKE2FS bool" Bool)
(declare-const "CONFIG_TOYBOX_FREE bool" Bool)
(declare-const "CONFIG_SWAPON bool" Bool)
(declare-const "CONFIG_CHMOD bool" Bool)
(declare-const "CONFIG_TFTPD bool" Bool)
(declare-const "CONFIG_REALPATH bool" Bool)
(declare-const "CONFIG_UNIQ bool" Bool)
(declare-const "CONFIG_TOYBOX_FIFREEZE hidden_bool" Bool)
(declare-const "CONFIG_WHO bool" Bool)
(declare-const "CONFIG_HWCLOCK bool" Bool)
(declare-const "CONFIG_DMESG bool" Bool)
(declare-const "CONFIG_MKNOD bool" Bool)
(declare-const "CONFIG_MOUNTPOINT bool" Bool)
(declare-const "CONFIG_TOYBOX_FALLOCATE hidden_bool" Bool)
(declare-const "CONFIG_KILLALL bool" Bool)
(declare-const "CONFIG_SHA224SUM bool" Bool)
(declare-const "CONFIG_DHCPD bool" Bool)
(declare-const "CONFIG_SLEEP bool" Bool)
(declare-const "CONFIG_INSTALL bool" Bool)
(declare-const "CONFIG_W bool" Bool)
(declare-const "CONFIG_BASE64 bool" Bool)
(declare-const "CONFIG_FALLOCATE bool" Bool)
(declare-const "CONFIG_KLOGD bool" Bool)
(declare-const "CONFIG_INSMOD bool" Bool)
(declare-const "CONFIG_MKSWAP bool" Bool)
(declare-const "CONFIG_RENICE bool" Bool)
(declare-const "CONFIG_CHATTR bool" Bool)
(declare-const "CONFIG_NETSTAT bool" Bool)
(declare-const "CONFIG_OD bool" Bool)
(declare-const "CONFIG_DEBUG_DHCP bool" Bool)
(declare-const "CONFIG_TOYBOX_DEBUG bool" Bool)
(declare-const "CONFIG_TTY bool" Bool)
(declare-const "CONFIG_DU bool" Bool)
(declare-const "CONFIG_CROND bool" Bool)
(declare-const "CONFIG_TOYBOX_MUSL_NOMMU_IS_BROKEN bool" Bool)
(declare-const "CONFIG_PWD bool" Bool)
(declare-const "CONFIG_EGREP hidden_bool" Bool)
(declare-const "CONFIG_BOOTCHARTD bool" Bool)
(declare-const "CONFIG_COMM bool" Bool)
(declare-const "CONFIG_ONEIT bool" Bool)
(declare-const "CONFIG_UNLINK bool" Bool)
(declare-const "CONFIG_NETCAT bool" Bool)
(declare-const "CONFIG_PASSWD_SAD bool" Bool)
(declare-const "CONFIG_HEXEDIT bool" Bool)
(declare-const "CONFIG_SHA256SUM bool" Bool)
(declare-const "CONFIG_CHVT bool" Bool)
(declare-const "CONFIG_FLOCK bool" Bool)
(declare-const "CONFIG_XARGS bool" Bool)
(declare-const "CONFIG_FSTYPE bool" Bool)
(declare-const "CONFIG_LSMOD bool" Bool)
(declare-const "CONFIG_MIX bool" Bool)
(declare-const "CONFIG_INIT bool" Bool)
(declare-const "CONFIG_DEALLOCVT bool" Bool)
(declare-const "CONFIG_TAIL_SEEK bool" Bool)
(declare-const "CONFIG_BASENAME bool" Bool)
(declare-const "CONFIG_RM bool" Bool)
(declare-const "CONFIG_LN bool" Bool)
(declare-const "CONFIG_ICONV bool" Bool)
(declare-const "CONFIG_FIND bool" Bool)
(declare-const "CONFIG_MKE2FS_JOURNAL bool" Bool)
(declare-const "CONFIG_MODPROBE bool" Bool)
(declare-const "CONFIG_CUT bool" Bool)
(declare-const "CONFIG_MKE2FS_LABEL bool" Bool)
(declare-const "CONFIG_XXD bool" Bool)
(declare-const "CONFIG_XZCAT bool" Bool)
(declare-const "CONFIG_HELLO bool" Bool)
(declare-const "CONFIG_KLOGD_SOURCE_RING_BUFFER bool" Bool)
(declare-const "CONFIG_COUNT bool" Bool)
(declare-const "CONFIG_SORT_FLOAT hidden_bool" Bool)
(declare-const "CONFIG_MD5SUM bool" Bool)
(declare-const "CONFIG_TOYBOX_UID_SYS nonbool 100" Bool)
(declare-const "CONFIG_FALSE bool" Bool)
(declare-const "CONFIG_TAR bool" Bool)
(declare-const "CONFIG_LOGIN bool" Bool)
(declare-const "CONFIG_MAKEDEVS bool" Bool)
(declare-const "CONFIG_PRINTENV bool" Bool)
(declare-const "CONFIG_TOYBOX_LIBCRYPTO bool" Bool)
(declare-const "CONFIG_PING bool" Bool)
(declare-const "CONFIG_MKDIR_Z hidden_bool" Bool)
(declare-const "CONFIG_CAT_V bool" Bool)
(declare-const "CONFIG_IOTOP bool" Bool)
(declare-const "CONFIG_COMPRESS bool" Bool)
(declare-const "CONFIG_TOYBOX_ON_ANDROID hidden_bool" Bool)
(declare-const "CONFIG_FSYNC bool" Bool)
(declare-const "CONFIG_ECHO bool" Bool)
(declare-const "CONFIG_TELNETD bool" Bool)
(declare-const "CONFIG_TRUE bool" Bool)
(declare-const "CONFIG_CPIO bool" Bool)
(declare-const "CONFIG_MKFIFO_Z hidden_bool" Bool)
(declare-const "CONFIG_FSCK bool" Bool)
(declare-const "CONFIG_TOYBOX_UID_USR nonbool 500" Bool)
(declare-const "CONFIG_CHGRP bool" Bool)
(declare-const "CONFIG_MDEV bool" Bool)
(declare-const "CONFIG_TR bool" Bool)
(declare-const "CONFIG_DHCP bool" Bool)
(declare-const "CONFIG_GROUPDEL bool" Bool)
(declare-const "CONFIG_EXPAND bool" Bool)
(declare-const "CONFIG_CAT bool" Bool)
(declare-const "CONFIG_SWAPOFF bool" Bool)
(declare-const "CONFIG_HELP bool" Bool)
(declare-const "CONFIG_DD bool" Bool)
(declare-const "CONFIG_RMDIR bool" Bool)
(declare-const "CONFIG_GREP bool" Bool)
(declare-const "CONFIG_BLOCKDEV bool" Bool)
(declare-const "CONFIG_UUENCODE bool" Bool)
(declare-const "CONFIG_TUNCTL bool" Bool)
(declare-const "CONFIG_TOYBOX_PEDANTIC_ARGS bool" Bool)
(declare-const "CONFIG_IORENICE bool" Bool)
(declare-const "CONFIG_SLEEP_FLOAT hidden_bool" Bool)
(declare-const "CONFIG_PIDOF bool" Bool)
(declare-const "CONFIG_CHOWN bool" Bool)
(declare-const "CONFIG_CHROOT bool" Bool)
(declare-const "CONFIG_VMSTAT bool" Bool)
(declare-const "CONFIG_SKELETON_ALIAS bool" Bool)
(declare-const "CONFIG_NL bool" Bool)
(declare-const "CONFIG_PIVOT_ROOT bool" Bool)
(declare-const "CONFIG_ZCAT bool" Bool)
(declare-const "CONFIG_PMAP bool" Bool)
(declare-const "CONFIG_SU bool" Bool)
(declare-const "CONFIG_STOP bool" Bool)
(declare-const "CONFIG_LS_COLOR bool" Bool)
(declare-const "CONFIG_DUMPLEASES bool" Bool)
(declare-const "CONFIG_HOSTNAME bool" Bool)
(declare-const "CONFIG_SYSCTL bool" Bool)
(declare-const "CONFIG_NPROC bool" Bool)
(declare-const "CONFIG_ROUTE bool" Bool)
(declare-const "CONFIG_LSOF bool" Bool)
(declare-const "CONFIG_USERDEL bool" Bool)
(declare-const "CONFIG_LOSETUP bool" Bool)
(declare-const "CONFIG_TOYBOX_UTMPX hidden_bool" Bool)
(declare-const "CONFIG_TOYBOX_LIBZ bool" Bool)
(declare-const "CONFIG_REV bool" Bool)
(declare-const "CONFIG_SH bool" Bool)
(declare-const "CONFIG_IPCRM bool" Bool)
(declare-const "CONFIG_LINK bool" Bool)
(declare-const "CONFIG_TOYBOX_ICONV hidden_bool" Bool)
(declare-const "CONFIG_ULIMIT bool" Bool)
(declare-const "CONFIG_DATE bool" Bool)
(declare-const "CONFIG_WHOAMI bool" Bool)
(declare-const "CONFIG_MKE2FS_GEN bool" Bool)
(declare-const "CONFIG_GETTY bool" Bool)
(declare-const "CONFIG_FTPPUT bool" Bool)
(declare-const "CONFIG_SETENFORCE bool" Bool)
(declare-const "CONFIG_TOP bool" Bool)
(declare-const "CONFIG_EJECT bool" Bool)
(declare-const "CONFIG_TOYBOX_LSM_NONE choice_bool" Bool)
(declare-const "CONFIG_FILE bool" Bool)
(declare-const "CONFIG_CHCON bool" Bool)
(declare-const "CONFIG_SORT bool" Bool)
(declare-const "CONFIG_SKELETON bool" Bool)
(declare-const "CONFIG_TCPSVD bool" Bool)
(declare-const "CONFIG_TOUCH bool" Bool)
(declare-const "CONFIG_REBOOT bool" Bool)
(declare-const "CONFIG_TOYBOX_CONTAINER hidden_bool" Bool)
(declare-const "CONFIG_TIME bool" Bool)
(declare-const "CONFIG_READAHEAD bool" Bool)
(declare-const "CONFIG_SYSLOGD bool" Bool)
(declare-const "CONFIG_TOYBOX_SMACK choice_bool" Bool)
(declare-const "CONFIG_NETCAT_LISTEN bool" Bool)
(declare-const "CONFIG_GETENFORCE bool" Bool)
(declare-const "CONFIG_FREE bool" Bool)
(declare-const "CONFIG_XARGS_PEDANTIC bool" Bool)
(declare-const "CONFIG_LOG bool" Bool)
(declare-const "CONFIG_ARPING bool" Bool)
(declare-const "CONFIG_CP_PRESERVE bool" Bool)
(assert
(and "__Root__"(and(implies "CONFIG_KILL bool" "__Root__")
(implies "CONFIG_TOYBOX_NORECURSE bool" "__Root__")
(implies "CONFIG_LOGGER bool" "__Root__")
(implies "CONFIG_WHICH bool" "__Root__")
(implies "CONFIG_DHCP6 bool" "__Root__")
(implies "CONFIG_LSATTR bool" "__Root__")
(implies "CONFIG_UUDECODE bool" "__Root__")
(implies "CONFIG_UNSHARE bool" "__Root__")
(implies "CONFIG_USERADD bool" "__Root__")
(implies "CONFIG_OPENVT bool" "__Root__")
(implies "CONFIG_IONICE bool" "__Root__")
(implies "CONFIG_SWITCH_ROOT bool" "__Root__")
(implies "CONFIG_WATCH bool" "__Root__")
(implies "CONFIG_FACTOR bool" "__Root__")
(implies "CONFIG_TOYBOX_HELP bool" "__Root__")
(implies "CONFIG_IFCONFIG bool" "__Root__")
(implies "CONFIG_GROUPS bool" "__Root__")
(implies "CONFIG_TOYBOX_ANDROID_SCHEDPOLICY hidden_bool" "__Root__")
(implies "CONFIG_MKDIR bool" "__Root__")
(implies "CONFIG_CATV bool" "__Root__")
(implies "CONFIG_MODINFO bool" "__Root__")
(implies "CONFIG_MDEV_CONF bool" "__Root__")
(implies "CONFIG_MKNOD_Z hidden_bool" "__Root__")
(implies "CONFIG_SETPROP bool" "__Root__")
(implies "CONFIG_IPCS bool" "__Root__")
(implies "CONFIG_FREERAMDISK bool" "__Root__")
(implies "CONFIG_TEST_MANY_OPTIONS bool" "__Root__")
(implies "CONFIG_UNIX2DOS bool" "__Root__")
(implies "CONFIG_SEQ bool" "__Root__")
(implies "CONFIG_ASCII bool" "__Root__")
(implies "CONFIG_TOYBOX_FORK hidden_bool" "__Root__")
(implies "CONFIG_TEST_UTF8TOWC bool" "__Root__")
(implies "CONFIG_LSUSB bool" "__Root__")
(implies "CONFIG_PS bool" "__Root__")
(implies "CONFIG_SYNC bool" "__Root__")
(implies "CONFIG_GZIP bool" "__Root__")
(implies "CONFIG_CHRT bool" "__Root__")
(implies "CONFIG_NBD_CLIENT bool" "__Root__")
(implies "CONFIG_FTPGET bool" "__Root__")
(implies "CONFIG_RMMOD bool" "__Root__")
(implies "CONFIG_TAIL bool" "__Root__")
(implies "CONFIG_MORE bool" "__Root__")
(implies "CONFIG_CMP bool" "__Root__")
(implies "CONFIG_GUNZIP bool" "__Root__")
(implies "CONFIG_UNAME bool" "__Root__")
(implies "CONFIG_TAC bool" "__Root__")
(implies "CONFIG_LOAD_POLICY bool" "__Root__")
(implies "CONFIG_GETPROP bool" "__Root__")
(implies "CONFIG_FSFREEZE bool" "__Root__")
(implies "CONFIG_MV bool" "__Root__")
(implies "CONFIG_PATCH bool" "__Root__")
(implies "CONFIG_PKILL bool" "__Root__")
(implies "CONFIG_DOS2UNIX bool" "__Root__")
(implies "CONFIG_SENDEVENT bool" "__Root__")
(implies "CONFIG_ACPI bool" "__Root__")
(implies "CONFIG_TEST_SCANKEY bool" "__Root__")
(implies "CONFIG_MKTEMP bool" "__Root__")
(implies "CONFIG_READLINK bool" "__Root__")
(implies "CONFIG_DF bool" "__Root__")
(implies "CONFIG_TOYBOX_HELP_DASHDASH bool" "__Root__")
(implies "CONFIG_BZCAT bool" "__Root__")
(implies "CONFIG_DIFF bool" "__Root__")
(implies "CONFIG_TRUNCATE bool" "__Root__")
(implies "CONFIG_DECOMPRESS bool" "__Root__")
(implies "CONFIG_YES bool" "__Root__")
(implies "CONFIG_ARP bool" "__Root__")
(implies "CONFIG_ID_Z hidden_bool" "__Root__")
(implies "CONFIG_HOST bool" "__Root__")
(implies "CONFIG_FOLD bool" "__Root__")
(implies "CONFIG_SHA1SUM bool" "__Root__")
(implies "CONFIG_TEST_HUMAN_READABLE bool" "__Root__")
(implies "CONFIG_TOYBOX_SHADOW hidden_bool" "__Root__")
(implies "CONFIG_USLEEP bool" "__Root__")
(implies "CONFIG_NICE bool" "__Root__")
(implies "CONFIG_RFKILL bool" "__Root__")
(implies "CONFIG_LSPCI_TEXT bool" "__Root__")
(implies "CONFIG_GETFATTR bool" "__Root__")
(implies "CONFIG_EXIT hidden_bool" "__Root__")
(implies "CONFIG_VCONFIG bool" "__Root__")
(implies "CONFIG_SETFATTR bool" "__Root__")
(implies "CONFIG_START bool" "__Root__")
(implies "CONFIG_TRACEROUTE bool" "__Root__")
(implies "CONFIG_TEE bool" "__Root__")
(implies "CONFIG_TEST bool" "__Root__")
(implies "CONFIG_ID bool" "__Root__")
(implies "CONFIG_TOYBOX_SUID bool" "__Root__")
(implies "CONFIG_TFTP bool" "__Root__")
(implies "CONFIG_FDISK bool" "__Root__")
(implies "CONFIG_BUNZIP2 bool" "__Root__")
(implies "CONFIG_MOUNT bool" "__Root__")
(implies "CONFIG_TOYBOX hidden_bool" "__Root__")
(implies "CONFIG_HOSTID bool" "__Root__")
(implies "CONFIG_EXPR bool" "__Root__")
(implies "CONFIG_CP bool" "__Root__")
(implies "CONFIG_MICROCOM bool" "__Root__")
(implies "CONFIG_PARTPROBE bool" "__Root__")
(implies "CONFIG_RUNCON bool" "__Root__")
(implies "CONFIG_SPLIT bool" "__Root__")
(implies "CONFIG_SED bool" "__Root__")
(implies "CONFIG_RESET bool" "__Root__")
(implies "CONFIG_WGET bool" "__Root__")
(implies "CONFIG_TOYBOX_SELINUX choice_bool" "__Root__")
(implies "CONFIG_NOHUP bool" "__Root__")
(implies "CONFIG_IP bool" "__Root__")
(implies "CONFIG_TOYBOX_PRLIMIT hidden_bool" "__Root__")
(implies "CONFIG_LSPCI bool" "__Root__")
(implies "CONFIG_HEAD bool" "__Root__")
(implies "CONFIG_TOYBOX_I18N bool" "__Root__")
(implies "CONFIG_UMOUNT bool" "__Root__")
(implies "CONFIG_DIRNAME bool" "__Root__")
(implies "CONFIG_HELP_EXTRAS bool" "__Root__")
(implies "CONFIG_CLEAR bool" "__Root__")
(implies "CONFIG_PASTE bool" "__Root__")
(implies "CONFIG_CD hidden_bool" "__Root__")
(implies "CONFIG_TIMEOUT bool" "__Root__")
(implies "CONFIG_VI bool" "__Root__")
(implies "CONFIG_STRINGS bool" "__Root__")
(implies "CONFIG_SULOGIN bool" "__Root__")
(implies "CONFIG_CKSUM bool" "__Root__")
(implies "CONFIG_KILLALL5 bool" "__Root__")
(implies "CONFIG_SETSID bool" "__Root__")
(implies "CONFIG_GROUPADD bool" "__Root__")
(implies "CONFIG_FGREP hidden_bool" "__Root__")
(implies "CONFIG_MKFIFO bool" "__Root__")
(implies "CONFIG_RESTORECON bool" "__Root__")
(implies "CONFIG_NSENTER bool" "__Root__")
(implies "CONFIG_TOYBOX_FLOAT bool" "__Root__")
(implies "CONFIG_ENV bool" "__Root__")
(implies "CONFIG_STAT bool" "__Root__")
(implies "CONFIG_TELNET bool" "__Root__")
(implies "CONFIG_SHA384SUM bool" "__Root__")
(implies "CONFIG_UPTIME bool" "__Root__")
(implies "CONFIG_LS bool" "__Root__")
(implies "CONFIG_PRINTF bool" "__Root__")
(implies "CONFIG_LOGNAME bool" "__Root__")
(implies "CONFIG_BLKID bool" "__Root__")
(implies "CONFIG_PGREP bool" "__Root__")
(implies "CONFIG_SORT_BIG bool" "__Root__")
(implies "CONFIG_SHA512SUM bool" "__Root__")
(implies "CONFIG_MKPASSWD bool" "__Root__")
(implies "CONFIG_PWDX bool" "__Root__")
(implies "CONFIG_SHRED bool" "__Root__")
(implies "CONFIG_PASSWD bool" "__Root__")
(implies "CONFIG_CAL bool" "__Root__")
(implies "CONFIG_INOTIFYD bool" "__Root__")
(implies "CONFIG_CRONTAB bool" "__Root__")
(implies "CONFIG_TASKSET bool" "__Root__")
(implies "CONFIG_BRCTL bool" "__Root__")
(implies "CONFIG_LAST bool" "__Root__")
(implies "CONFIG_WC bool" "__Root__")
(implies "CONFIG_MKE2FS_EXTENDED bool" "__Root__")
(implies "CONFIG_MKE2FS bool" "__Root__")
(implies "CONFIG_TOYBOX_FREE bool" "__Root__")
(implies "CONFIG_SWAPON bool" "__Root__")
(implies "CONFIG_CHMOD bool" "__Root__")
(implies "CONFIG_TFTPD bool" "__Root__")
(implies "CONFIG_REALPATH bool" "__Root__")
(implies "CONFIG_UNIQ bool" "__Root__")
(implies "CONFIG_TOYBOX_FIFREEZE hidden_bool" "__Root__")
(implies "CONFIG_WHO bool" "__Root__")
(implies "CONFIG_HWCLOCK bool" "__Root__")
(implies "CONFIG_DMESG bool" "__Root__")
(implies "CONFIG_MKNOD bool" "__Root__")
(implies "CONFIG_MOUNTPOINT bool" "__Root__")
(implies "CONFIG_TOYBOX_FALLOCATE hidden_bool" "__Root__")
(implies "CONFIG_KILLALL bool" "__Root__")
(implies "CONFIG_SHA224SUM bool" "__Root__")
(implies "CONFIG_DHCPD bool" "__Root__")
(implies "CONFIG_SLEEP bool" "__Root__")
(implies "CONFIG_INSTALL bool" "__Root__")
(implies "CONFIG_W bool" "__Root__")
(implies "CONFIG_BASE64 bool" "__Root__")
(implies "CONFIG_FALLOCATE bool" "__Root__")
(implies "CONFIG_KLOGD bool" "__Root__")
(implies "CONFIG_INSMOD bool" "__Root__")
(implies "CONFIG_MKSWAP bool" "__Root__")
(implies "CONFIG_RENICE bool" "__Root__")
(implies "CONFIG_CHATTR bool" "__Root__")
(implies "CONFIG_NETSTAT bool" "__Root__")
(implies "CONFIG_OD bool" "__Root__")
(implies "CONFIG_DEBUG_DHCP bool" "__Root__")
(implies "CONFIG_TOYBOX_DEBUG bool" "__Root__")
(implies "CONFIG_TTY bool" "__Root__")
(implies "CONFIG_DU bool" "__Root__")
(implies "CONFIG_CROND bool" "__Root__")
(implies "CONFIG_TOYBOX_MUSL_NOMMU_IS_BROKEN bool" "__Root__")
(implies "CONFIG_PWD bool" "__Root__")
(implies "CONFIG_EGREP hidden_bool" "__Root__")
(implies "CONFIG_BOOTCHARTD bool" "__Root__")
(implies "CONFIG_COMM bool" "__Root__")
(implies "CONFIG_ONEIT bool" "__Root__")
(implies "CONFIG_UNLINK bool" "__Root__")
(implies "CONFIG_NETCAT bool" "__Root__")
(implies "CONFIG_PASSWD_SAD bool" "__Root__")
(implies "CONFIG_HEXEDIT bool" "__Root__")
(implies "CONFIG_SHA256SUM bool" "__Root__")
(implies "CONFIG_CHVT bool" "__Root__")
(implies "CONFIG_FLOCK bool" "__Root__")
(implies "CONFIG_XARGS bool" "__Root__")
(implies "CONFIG_FSTYPE bool" "__Root__")
(implies "CONFIG_LSMOD bool" "__Root__")
(implies "CONFIG_MIX bool" "__Root__")
(implies "CONFIG_INIT bool" "__Root__")
(implies "CONFIG_DEALLOCVT bool" "__Root__")
(implies "CONFIG_TAIL_SEEK bool" "__Root__")
(implies "CONFIG_BASENAME bool" "__Root__")
(implies "CONFIG_RM bool" "__Root__")
(implies "CONFIG_LN bool" "__Root__")
(implies "CONFIG_ICONV bool" "__Root__")
(implies "CONFIG_FIND bool" "__Root__")
(implies "CONFIG_MKE2FS_JOURNAL bool" "__Root__")
(implies "CONFIG_MODPROBE bool" "__Root__")
(implies "CONFIG_CUT bool" "__Root__")
(implies "CONFIG_MKE2FS_LABEL bool" "__Root__")
(implies "CONFIG_XXD bool" "__Root__")
(implies "CONFIG_XZCAT bool" "__Root__")
(implies "CONFIG_HELLO bool" "__Root__")
(implies "CONFIG_KLOGD_SOURCE_RING_BUFFER bool" "__Root__")
(implies "CONFIG_COUNT bool" "__Root__")
(implies "CONFIG_SORT_FLOAT hidden_bool" "__Root__")
(implies "CONFIG_MD5SUM bool" "__Root__")
(implies "CONFIG_TOYBOX_UID_SYS nonbool 100" "__Root__")
(implies "CONFIG_FALSE bool" "__Root__")
(implies "CONFIG_TAR bool" "__Root__")
(implies "CONFIG_LOGIN bool" "__Root__")
(implies "CONFIG_MAKEDEVS bool" "__Root__")
(implies "CONFIG_PRINTENV bool" "__Root__")
(implies "CONFIG_TOYBOX_LIBCRYPTO bool" "__Root__")
(implies "CONFIG_PING bool" "__Root__")
(implies "CONFIG_MKDIR_Z hidden_bool" "__Root__")
(implies "CONFIG_CAT_V bool" "__Root__")
(implies "CONFIG_IOTOP bool" "__Root__")
(implies "CONFIG_COMPRESS bool" "__Root__")
(implies "CONFIG_TOYBOX_ON_ANDROID hidden_bool" "__Root__")
(implies "CONFIG_FSYNC bool" "__Root__")
(implies "CONFIG_ECHO bool" "__Root__")
(implies "CONFIG_TELNETD bool" "__Root__")
(implies "CONFIG_TRUE bool" "__Root__")
(implies "CONFIG_CPIO bool" "__Root__")
(implies "CONFIG_MKFIFO_Z hidden_bool" "__Root__")
(implies "CONFIG_FSCK bool" "__Root__")
(implies "CONFIG_TOYBOX_UID_USR nonbool 500" "__Root__")
(implies "CONFIG_CHGRP bool" "__Root__")
(implies "CONFIG_MDEV bool" "__Root__")
(implies "CONFIG_TR bool" "__Root__")
(implies "CONFIG_DHCP bool" "__Root__")
(implies "CONFIG_GROUPDEL bool" "__Root__")
(implies "CONFIG_EXPAND bool" "__Root__")
(implies "CONFIG_CAT bool" "__Root__")
(implies "CONFIG_SWAPOFF bool" "__Root__")
(implies "CONFIG_HELP bool" "__Root__")
(implies "CONFIG_DD bool" "__Root__")
(implies "CONFIG_RMDIR bool" "__Root__")
(implies "CONFIG_GREP bool" "__Root__")
(implies "CONFIG_BLOCKDEV bool" "__Root__")
(implies "CONFIG_UUENCODE bool" "__Root__")
(implies "CONFIG_TUNCTL bool" "__Root__")
(implies "CONFIG_TOYBOX_PEDANTIC_ARGS bool" "__Root__")
(implies "CONFIG_IORENICE bool" "__Root__")
(implies "CONFIG_SLEEP_FLOAT hidden_bool" "__Root__")
(implies "CONFIG_PIDOF bool" "__Root__")
(implies "CONFIG_CHOWN bool" "__Root__")
(implies "CONFIG_CHROOT bool" "__Root__")
(implies "CONFIG_VMSTAT bool" "__Root__")
(implies "CONFIG_SKELETON_ALIAS bool" "__Root__")
(implies "CONFIG_NL bool" "__Root__")
(implies "CONFIG_PIVOT_ROOT bool" "__Root__")
(implies "CONFIG_ZCAT bool" "__Root__")
(implies "CONFIG_PMAP bool" "__Root__")
(implies "CONFIG_SU bool" "__Root__")
(implies "CONFIG_STOP bool" "__Root__")
(implies "CONFIG_LS_COLOR bool" "__Root__")
(implies "CONFIG_DUMPLEASES bool" "__Root__")
(implies "CONFIG_HOSTNAME bool" "__Root__")
(implies "CONFIG_SYSCTL bool" "__Root__")
(implies "CONFIG_NPROC bool" "__Root__")
(implies "CONFIG_ROUTE bool" "__Root__")
(implies "CONFIG_LSOF bool" "__Root__")
(implies "CONFIG_USERDEL bool" "__Root__")
(implies "CONFIG_LOSETUP bool" "__Root__")
(implies "CONFIG_TOYBOX_UTMPX hidden_bool" "__Root__")
(implies "CONFIG_TOYBOX_LIBZ bool" "__Root__")
(implies "CONFIG_REV bool" "__Root__")
(implies "CONFIG_SH bool" "__Root__")
(implies "CONFIG_IPCRM bool" "__Root__")
(implies "CONFIG_LINK bool" "__Root__")
(implies "CONFIG_TOYBOX_ICONV hidden_bool" "__Root__")
(implies "CONFIG_ULIMIT bool" "__Root__")
(implies "CONFIG_DATE bool" "__Root__")
(implies "CONFIG_WHOAMI bool" "__Root__")
(implies "CONFIG_MKE2FS_GEN bool" "__Root__")
(implies "CONFIG_GETTY bool" "__Root__")
(implies "CONFIG_FTPPUT bool" "__Root__")
(implies "CONFIG_SETENFORCE bool" "__Root__")
(implies "CONFIG_TOP bool" "__Root__")
(implies "CONFIG_EJECT bool" "__Root__")
(implies "CONFIG_TOYBOX_LSM_NONE choice_bool" "__Root__")
(implies "CONFIG_FILE bool" "__Root__")
(implies "CONFIG_CHCON bool" "__Root__")
(implies "CONFIG_SORT bool" "__Root__")
(implies "CONFIG_SKELETON bool" "__Root__")
(implies "CONFIG_TCPSVD bool" "__Root__")
(implies "CONFIG_TOUCH bool" "__Root__")
(implies "CONFIG_REBOOT bool" "__Root__")
(implies "CONFIG_TOYBOX_CONTAINER hidden_bool" "__Root__")
(implies "CONFIG_TIME bool" "__Root__")
(implies "CONFIG_READAHEAD bool" "__Root__")
(implies "CONFIG_SYSLOGD bool" "__Root__")
(implies "CONFIG_TOYBOX_SMACK choice_bool" "__Root__")
(implies "CONFIG_NETCAT_LISTEN bool" "__Root__")
(implies "CONFIG_GETENFORCE bool" "__Root__")
(implies "CONFIG_FREE bool" "__Root__")
(implies "CONFIG_XARGS_PEDANTIC bool" "__Root__")
(implies "CONFIG_LOG bool" "__Root__")
(implies "CONFIG_ARPING bool" "__Root__")
(implies "CONFIG_CP_PRESERVE bool" "__Root__"))
(and(or "CONFIG_EGREP hidden_bool" "CONFIG_GREP bool")
 "CONFIG_TOYBOX_UTMPX hidden_bool"(or "CONFIG_TOYBOX_FALLOCATE hidden_bool" "CONFIG_FALLOCATE bool")
(or "CONFIG_MKNOD_Z hidden_bool" "CONFIG_TOYBOX_LSM_NONE choice_bool")
(or "CONFIG_FGREP hidden_bool" "CONFIG_GREP bool")
(or "CONFIG_MKDIR_Z hidden_bool" "CONFIG_TOYBOX_LSM_NONE choice_bool")
(or "CONFIG_MKE2FS bool" "CONFIG_MKE2FS_LABEL bool")
(or "CONFIG_TOYBOX_FORK hidden_bool" "CONFIG_TCPSVD bool")
(or "CONFIG_GZIP bool" "CONFIG_TOYBOX_LIBZ bool")
(or "CONFIG_TOYBOX_FLOAT bool" "CONFIG_SLEEP bool" "CONFIG_SLEEP_FLOAT hidden_bool")
(or "CONFIG_TOYBOX_HELP bool" "CONFIG_TOYBOX_HELP_DASHDASH bool")
 "CONFIG_TOYBOX_FIFREEZE hidden_bool"(or "CONFIG_TOYBOX_FORK hidden_bool" "CONFIG_TOYBOX_MUSL_NOMMU_IS_BROKEN bool")
(or "CONFIG_KILL bool" "CONFIG_KILLALL5 bool")
(or "CONFIG_TOYBOX_FLOAT bool" "CONFIG_SORT_BIG bool" "CONFIG_SORT_FLOAT hidden_bool")
(or "CONFIG_MKFIFO_Z hidden_bool" "CONFIG_TOYBOX_LSM_NONE choice_bool")
(or "CONFIG_SETPROP bool" "CONFIG_TOYBOX_ON_ANDROID hidden_bool")
(or "CONFIG_TOYBOX_SELINUX choice_bool" "CONFIG_TOYBOX_SMACK choice_bool")
(or "CONFIG_TOYBOX_FORK hidden_bool" "CONFIG_TOYBOX_MUSL_NOMMU_IS_BROKEN bool")
(or "CONFIG_MKE2FS_EXTENDED bool" "CONFIG_MKE2FS bool")
(or "CONFIG_ZCAT bool" "CONFIG_TOYBOX_LIBZ bool")
(or "CONFIG_XARGS bool" "CONFIG_XARGS_PEDANTIC bool")
(or "CONFIG_SHA512SUM bool" "CONFIG_TOYBOX_LIBCRYPTO bool")
(or "CONFIG_TOYBOX_SELINUX choice_bool" "CONFIG_CHCON bool")
(or "CONFIG_ID_Z hidden_bool" "CONFIG_ID bool")
(or "CONFIG_TOYBOX_LSM_NONE choice_bool" "CONFIG_TOYBOX_SMACK choice_bool")
 "CONFIG_EXIT hidden_bool"(or "CONFIG_TOYBOX_FORK hidden_bool" "CONFIG_BOOTCHARTD bool")
(or "CONFIG_GETPROP bool" "CONFIG_TOYBOX_SELINUX choice_bool")
(or "CONFIG_TOYBOX_HELP bool" "CONFIG_HELP bool")
(or "CONFIG_LOGGER bool" "CONFIG_SYSLOGD bool")
 "CONFIG_CD hidden_bool"(or "CONFIG_TOYBOX_FLOAT bool" "CONFIG_SLEEP_FLOAT hidden_bool")
(or "CONFIG_OPENVT bool" "CONFIG_TOYBOX_FORK hidden_bool")
(or "CONFIG_SENDEVENT bool" "CONFIG_TOYBOX_ON_ANDROID hidden_bool")
(or "CONFIG_GETPROP bool" "CONFIG_TOYBOX_SELINUX choice_bool" "CONFIG_TOYBOX_ON_ANDROID hidden_bool")
(or "CONFIG_FGREP hidden_bool" "CONFIG_GREP bool")
(or "CONFIG_TOYBOX_SELINUX choice_bool" "CONFIG_RESTORECON bool")
(or "CONFIG_W bool" "CONFIG_TOYBOX_UTMPX hidden_bool")
(or "CONFIG_LSPCI_TEXT bool" "CONFIG_LSPCI bool")
(or "CONFIG_TOYBOX_SHADOW hidden_bool" "CONFIG_SULOGIN bool")
(or "CONFIG_TOYBOX_ON_ANDROID hidden_bool" "CONFIG_LOG bool")
(or "CONFIG_MKE2FS bool" "CONFIG_MKE2FS_GEN bool")
(or "CONFIG_SORT_BIG bool" "CONFIG_SORT bool")
(or "CONFIG_SEQ bool" "CONFIG_TOYBOX_FLOAT bool")
(or "CONFIG_DHCPD bool" "CONFIG_DEBUG_DHCP bool")
(or "CONFIG_TOYBOX_FLOAT bool" "CONFIG_SORT_FLOAT hidden_bool")
(or "CONFIG_TOYBOX hidden_bool" "CONFIG_HELP_EXTRAS bool")
(or "CONFIG_TOYBOX_FLOAT bool" "CONFIG_TIME bool")
(or "CONFIG_TAIL bool" "CONFIG_TAIL_SEEK bool")
(or "CONFIG_ICONV bool" "CONFIG_TOYBOX_ICONV hidden_bool")
(or "CONFIG_RUNCON bool" "CONFIG_TOYBOX_SELINUX choice_bool")
(or "CONFIG_MKFIFO bool" "CONFIG_MKFIFO_Z hidden_bool")
(or "CONFIG_MDEV_CONF bool" "CONFIG_MDEV bool")
(or "CONFIG_EGREP hidden_bool" "CONFIG_GREP bool")
(or "CONFIG_TOYBOX_SELINUX choice_bool" "CONFIG_TOYBOX_LSM_NONE choice_bool" "CONFIG_TOYBOX_SMACK choice_bool")
 "CONFIG_TOYBOX_UID_USR nonbool 500"(or "CONFIG_TIMEOUT bool" "CONFIG_TOYBOX_FLOAT bool")
 "CONFIG_TOYBOX_ON_ANDROID hidden_bool"(or "CONFIG_TOYBOX_SHADOW hidden_bool" "CONFIG_LOGIN bool")
 "CONFIG_TOYBOX_ANDROID_SCHEDPOLICY hidden_bool"(or "CONFIG_UPTIME bool" "CONFIG_TOYBOX_UTMPX hidden_bool")
(or "CONFIG_TOYBOX_SELINUX choice_bool" "CONFIG_TOYBOX_LSM_NONE choice_bool")
(or "CONFIG_MKNOD_Z hidden_bool" "CONFIG_MKNOD bool")
(or "CONFIG_PASSWD bool" "CONFIG_PASSWD_SAD bool")
(or "CONFIG_KLOGD bool" "CONFIG_KLOGD_SOURCE_RING_BUFFER bool")
(or "CONFIG_TOYBOX_FORK hidden_bool" "CONFIG_NBD_CLIENT bool")
(or "CONFIG_CAT_V bool" "CONFIG_CAT bool")
(or "CONFIG_HELP_EXTRAS bool" "CONFIG_HELP bool")
 "CONFIG_TOYBOX_SHADOW hidden_bool"(or "CONFIG_CP bool" "CONFIG_CP_PRESERVE bool")
(or "CONFIG_SLEEP bool" "CONFIG_SLEEP_FLOAT hidden_bool")
(or "CONFIG_SHA224SUM bool" "CONFIG_TOYBOX_LIBCRYPTO bool")
 "CONFIG_TOYBOX_ICONV hidden_bool"(or "CONFIG_NSENTER bool" "CONFIG_TOYBOX_CONTAINER hidden_bool")
(or "CONFIG_FSFREEZE bool" "CONFIG_TOYBOX_FIFREEZE hidden_bool")
(or "CONFIG_MKDIR bool" "CONFIG_MKDIR_Z hidden_bool")
(or "CONFIG_SHA384SUM bool" "CONFIG_TOYBOX_LIBCRYPTO bool")
(or "CONFIG_TOYBOX_FORK hidden_bool" "CONFIG_CRONTAB bool")
(or "CONFIG_TOYBOX_ON_ANDROID hidden_bool" "CONFIG_STOP bool")
 "CONFIG_TOYBOX_PRLIMIT hidden_bool"(or "CONFIG_MKFIFO bool" "CONFIG_MKFIFO_Z hidden_bool" "CONFIG_TOYBOX_LSM_NONE choice_bool")
(or "CONFIG_TOYBOX_SELINUX choice_bool" "CONFIG_SETENFORCE bool")
(or "CONFIG_TOYBOX hidden_bool" "CONFIG_HELP_EXTRAS bool" "CONFIG_HELP bool")
(or "CONFIG_TOYBOX_SHADOW hidden_bool" "CONFIG_PASSWD bool")
(or "CONFIG_GETPROP bool" "CONFIG_TOYBOX_ON_ANDROID hidden_bool")
(or "CONFIG_TOYBOX_SELINUX choice_bool" "CONFIG_GETENFORCE bool")
(or "CONFIG_TOYBOX_SHADOW hidden_bool" "CONFIG_SU bool")
 "CONFIG_TOYBOX_UID_SYS nonbool 100"(or "CONFIG_MKE2FS bool" "CONFIG_MKE2FS_JOURNAL bool")
(or "CONFIG_MKPASSWD bool" "CONFIG_TOYBOX_ON_ANDROID hidden_bool")
 "CONFIG_TOYBOX hidden_bool" "CONFIG_TOYBOX_FALLOCATE hidden_bool"(or "CONFIG_MKNOD_Z hidden_bool" "CONFIG_MKNOD bool" "CONFIG_TOYBOX_LSM_NONE choice_bool")
(or "CONFIG_GUNZIP bool" "CONFIG_TOYBOX_LIBZ bool")
(or "CONFIG_NETCAT bool" "CONFIG_NETCAT_LISTEN bool")
(or "CONFIG_ID_Z hidden_bool" "CONFIG_ID bool" "CONFIG_TOYBOX_LSM_NONE choice_bool")
(or "CONFIG_ID_Z hidden_bool" "CONFIG_TOYBOX_LSM_NONE choice_bool")
(or "CONFIG_LOAD_POLICY bool" "CONFIG_TOYBOX_SELINUX choice_bool")
(or "CONFIG_LS bool" "CONFIG_LS_COLOR bool")
(or "CONFIG_SORT_BIG bool" "CONFIG_SORT_FLOAT hidden_bool")
(or "CONFIG_SHA256SUM bool" "CONFIG_TOYBOX_LIBCRYPTO bool")
(or "CONFIG_TOYBOX_PRLIMIT hidden_bool" "CONFIG_ULIMIT bool")
 "CONFIG_TOYBOX_CONTAINER hidden_bool"(or "CONFIG_UNSHARE bool" "CONFIG_TOYBOX_CONTAINER hidden_bool")
(or "CONFIG_WHO bool" "CONFIG_TOYBOX_UTMPX hidden_bool")
(or "CONFIG_MKDIR bool" "CONFIG_MKDIR_Z hidden_bool" "CONFIG_TOYBOX_LSM_NONE choice_bool")
(or "CONFIG_START bool" "CONFIG_TOYBOX_ON_ANDROID hidden_bool")))
)